\ Model milp_copy
\ LP format - for model browsing. Use MPS format to capture full model detail.
Minimize
 
Subject To
 R60: 3.59999998274249 C0 + 3.2634872029910889e-04 C2
   + 3.199999988494994 C3 + 2.538267824874549e-04 C5 + 2.799999992809371 C6
   + 0.00019037 C8 + 2.399999995891069 C9 + 1.3597863350161258e-04 C11
   + 1.999999997945535 C12 + 9.06524e-05 C14 + 1.599999999178214 C15
   + 5.43915e-05 C17 + 1.199999999794553 C18 + 2.71957e-05 C20 + 0.8 C21
   + 9.06524e-06 C23 + 0.4 C24 <= -1
Bounds
End
